NAME : netgen18-5-13
COMMENT : Generated using the function generateClusteredNetwork from the R-package netgen (Bossek,2015) - Number of clusters: 5
TYPE : TSP
DIMENSION : 18
EDGE_WEIGHT_TYPE : EUC_2D
NODE_COORD_SECTION
1 59.4879820538 80.8015736857
2 42.5176294455 79.8592548506
3 48.5405825808 91.0285805444
4 38.0165702866 44.2422995925
5 33.0643419324 45.2197404775
6 45.7771913144 45.984860973
7 79.6402455493 6.0335304445
8 82.6770586538 14.323969326
9 81.1359589743 5.6696255913
10 11.4581695826 65.5865174616
11 7.1117889954 76.5547547929
12 11.9171567749 70.5108445397
13 59.9969899443 27.1221035102
14 61.8168528852 26.9745265774
15 77.1156461116 35.9423569626
16 68.1032625741 25.7442176368
17 65.1099465679 33.3124760917
18 61.9784818354 29.6979885943
EOF
